benchmarks_vrp/CMT5/tsp_classic/CMT5_7.vrp
NAME: CMT5_7
TYPE: CVRP
COMMENT: 1291.29 - Cluster Nr.7
DIMENSION: 14
CAPACITY: 200
EDGE_WEIGHT_TYPE: EUC_2D
NODE_COORD_TYPE: TWOD_COORDS
NODE_COORD_SECTION: 
2 31 32
5 41 37
6 35 40
8 30 48
7 27 43
10 35 35
12 32 39
13 37 47
14 42 41
1 38 46
4 33 44
3 33 34
9 35 51
11 41 46
DEPOT_SECTION: 
10
-1
DEMAND_SECTION: 
10 0
13 6
1 12
11 18
12 5
2 29
9 16
7 9
3 19
4 20
6 16
14 19
8 15
5 16
EOF
