benchmarks_vrp/CMT5/tsp_classic/CMT5_7.tour
NAME: CMT5_7 solution
TYPE: TOUR
TOUR_SECTION:
10 3 2 12 6 4 7 8 9 13 1 11 14 5 -1
-1
EOF